  SYSTEM = Auto-generated
KSPACING = 0.3
   KGAMMA = .TRUE.
   ENCUT = 520
  IBRION = 2
    ISIF = 3
     NSW = 80
   EDIFF = 1e-6
  EDIFFG = -1e-3
    PREC = Accurate
   LREAL = .FALSE.
   ISPIN = 2
  ISTART = 0
  LORBIT = 11
  ISMEAR = 0
   SIGMA = 0.1
    ISYM = 0
    ALGO = Fast
   LREAL = .FALSE.
   RWIGS = 1.34 0.75
